 ISMEAR = -5  
 SIGMA = 0.025
 PREC = Acc 
 EDIFF = -1E-04
 EDIFFG = -.1E-05
 LREAL = Auto 
 LORBIT=11
