ALGO = Fast 
EDIFF = -1E-4
EDIFFG = -.1E-05
ENCUT = 520
IBRION = 2
ICHARG = 1
ISIF = 2
ISMEAR = -5
#ISPIN = 2
LORBIT = 11
LREAL = Auto
LWAVE = False
#MAGMOM = 4*0.6
NELM = 100
NSW = 99
PREC = Accurate
SIGMA = 0.025
SYMPREC= 1E-4
