Si 
 1.0000000000000000
     2.7361389900000002    0.0000000000000000    0.0000000000000000
     1.3680694950000003    2.3695658736250960    0.0000000000000000
     1.3680694950000003    0.7898552912083655    2.2340481302780413
   1
Cartesian
  0.0000000000000000  0.0000000000000000  0.0000000000000000
