Ga4 N4
1.0
4.545576 0.000000 0.000000
0.000000 4.545576 0.000000
0.000000 0.000000 4.545576
Ga N
4 4
direct
0.250000 0.250000 0.250000 Ga
0.750000 0.750000 0.250000 Ga
0.750000 0.250000 0.750000 Ga
0.250000 0.750000 0.750000 Ga
0.000000 0.000000 0.500000 N
0.500000 0.000000 0.000000 N
0.000000 0.500000 0.000000 N
0.500000 0.500000 0.500000 N
