Si4
1.0
3.869485 0.000000 0.000000
0.000000 3.869485 0.000000
0.000000 0.000000 3.869485
Si
4
direct
0.000000 0.000000 0.000000 Si
0.500000 0.500000 0.000000 Si
0.500000 0.000000 0.500000 Si
0.000000 0.500000 0.500000 Si
