Si 
 1.0000000000000000
     2.7360000000000002    0.0000000000000000    0.0000000000000000
     1.3680000000000003    2.3694455047542240    0.0000000000000000
     1.3680000000000003    0.7898151682514082    2.2339346454182585
   1
Cartesian
  0.0000000000000000  0.0000000000000000  0.0000000000000000
